TOUR_SECTION
1
145
149
79
13
24
62
154
61
194
167
122
34
105
132
188
127
195
98
161
152
148
89
138
8
151
175
2
7
28
57
199
100
19
186
39
137
117
106
166
64
83
196
111
119
9
95
20
35
160
23
71
120
85
59
97
36
123
184
147
87
156
6
162
5
76
102
141
107
77
46
178
174
159
104
155
183
114
54
187
37
140
26
158
201
170
96
118
86
165
4
38
10
103
21
125
94
33
182
189
173
56
27
190
70
185
44
11
200
99
12
101
16
31
50
108
139
150
115
169
197
49
124
192
90
45
17
53
112
142
22
51
134
164
60
42
73
116
129
88
181
128
84
58
198
113
131
171
63
168
69
29
41
126
130
18
72
78
110
177
3
157
93
74
80
55
25
146
133
75
14
65
143
193
180
163
43
121
32
179
176
30
40
109
52
92
153
15
136
67
91
68
81
172
47
66
82
48
135
191
144
-1
EOF